21004.71 0
0 65 86 58 27 31 56 75 10 81 73 95 78 67 98 42 53 9 61 89 2 50 34 76 64 62 28 13 69 91 4 16 96 80 14 29 26 79 17 84 51 99 21 32 11 3 55 24 71 57 66 74 39 83 7 47 37 77 88 87 20 5 92 54 35 44 43 40 25 19 72 70 38 90 8 22 52 18 63 48 68 41 59 85 6 23 49 82 94 30 46 45 36 1 60 33 97 15 93 12